Version identifier: 22.1.0.0 | 2022-03-09 | 1a383f8ce
CPXPARAM_Read_DataCheck                          1
1 of 1 MIP starts provided solutions.
MIP start 'm1' defined initial solution with objective 32.0000.
Tried aggregator 4 times.
MIP Presolve eliminated 12240 rows and 2134 columns.
MIP Presolve modified 261 coefficients.
Aggregator did 10549 substitutions.
Reduced MIP has 2222 rows, 10933 columns, and 24097 nonzeros.
Reduced MIP has 10915 binaries, 18 generals, 0 SOSs, and 0 indicators.
Presolve time = 0.09 sec. (98.82 ticks)
Probing fixed 30 vars, tightened 0 bounds.
Probing changed sense of 6 constraints.
Probing time = 0.04 sec. (5.14 ticks)
Tried aggregator 2 times.
Detecting symmetries...
MIP Presolve eliminated 28 rows and 37 columns.
Aggregator did 14 substitutions.
Reduced MIP has 2180 rows, 10882 columns, and 23927 nonzeros.
Reduced MIP has 10864 binaries, 18 generals, 0 SOSs, and 0 indicators.
Presolve time = 0.03 sec. (24.55 ticks)
Probing fixed 4 vars, tightened 0 bounds.
Probing time = 0.03 sec. (4.62 ticks)
Clique table members: 22404.
MIP emphasis: balance optimality and feasibility.
MIP search method: dynamic search.
Parallel mode: deterministic, using up to 8 threads.
Root relaxation solution time = 0.12 sec. (81.75 ticks)

        Nodes                                         Cuts/
   Node  Left     Objective  IInf  Best Integer    Best Bound    ItCnt     Gap

*     0+    0                           32.0000        0.0000           100.00%
      0     0       18.4414  1744       32.0000       18.4414     1987   42.37%
      0     0       31.0000   479       32.0000      Cuts: 59     4049    3.12%
      0     0       31.0000   322       32.0000      Cuts: 19     8635    3.12%

Repeating presolve.
Tried aggregator 3 times.
MIP Presolve eliminated 387 rows and 4451 columns.
MIP Presolve modified 1 coefficients.
Aggregator did 340 substitutions.
Reduced MIP has 1453 rows, 6091 columns, and 13496 nonzeros.
Reduced MIP has 6091 binaries, 0 generals, 0 SOSs, and 0 indicators.
Presolve time = 0.03 sec. (26.45 ticks)
Represolve time = 0.06 sec. (41.46 ticks)

Root node processing (before b&c):
  Real time             =    4.17 sec. (2641.70 ticks)
Parallel b&c, 8 threads:
  Real time             =    0.00 sec. (0.00 ticks)
  Sync time (average)   =    0.00 sec.
  Wait time (average)   =    0.00 sec.
                          ------------
Total (root+branch&cut) =    4.17 sec. (2641.70 ticks)
